data;

param D:=1;
param E:=5;

set PATH[1] :=1 2 3 4;

param h :=
 1 4;

param k :=
 1 2;

param l :=
 1 3;

param q :=
 1 0.1
 2 0.1
 3 0.1
 4 0.1
 5 0.1;

param cost :=
 1 1
 2 2
 3 2
 4 2
 5 2;

param judge :=
 [1,*,*]:	1	2	3	4 :=
	1	0	0	1	1
	2	1	0	1	0
	3	0	1	0	1
	4	1	0	0	1
	5	0	1	1	0;










